root_relax = 494.9
QCR_time = 25.6218
opt = false
obj_val = 494.25
solved_time = 1800.462
explored_nodes = 177511
nb_dom_cuts = 102926
QP_Dom/bcc86501.txt"
Set parameter Presolve to value 0
Set parameter AggFill to value -1
Set parameter Aggregate to value 0
Set parameter Heuristics to value 0
Set parameter LPWarmStart to value 0
Set parameter NLPHeur to value 0
Set parameter NoRelHeurTime to value 0
Set parameter PreCrush to value 0
Set parameter PreDepRow to value 0
Set parameter PreDual to value 0
Set parameter PrePasses to value -1
Set parameter RINS to value 0
Set parameter Symmetry to value 0
Set parameter PreQLinearize to value 0
Set parameter NonConvex to value 0

Gurobi 12.0.0 (linux64) logging started Thu Aug 14 21:14:46 2025

Set parameter LogFile to value "./res/Gurobi/QCR_QP_Dom/bcc86501.txt"
Set parameter PreCrush to value 0
Set parameter PrePasses to value -1
Set parameter AggFill to value -1
Set parameter NoRelHeurTime to value 0
Set parameter NLPHeur to value 0
Set parameter NonConvex to value 0
Set parameter LPWarmStart to value 0
Set parameter PreDepRow to value 0
Set parameter Symmetry to value 0
Set parameter Presolve to value 0
Gurobi Optimizer version 12.0.0 build v12.0.0rc1 (linux64 - "Debian GNU/Linux 12 (bookworm)")

CPU model: Intel(R) Xeon(R) CPU E5-2650 v3 @ 2.30GHz, instruction set [SSE2|AVX|AVX2]
Thread count: 20 physical cores, 40 logical processors, using up to 20 threads

Non-default parameters:
TimeLimit  1800
LPWarmStart  0
Heuristics  0
RINS  0
NLPHeur  0
Symmetry  0
Aggregate  0
PreDual  0
NonConvex  0
PreDepRow  0
PreQLinearize  0
Presolve  0

Optimize a model with 102926 rows, 67 columns and 3419098 nonzeros
Model fingerprint: 0xe194fa17
Model has 992 quadratic objective terms
Variable types: 0 continuous, 67 integer (67 binary)
Coefficient statistics:
  Matrix range     [1e+00, 1e+00]
  Objective range  [4e+00, 6e+01]
  QObjective range [2e+00, 1e+01]
  Bounds range     [0e+00, 0e+00]
  RHS range        [1e+00, 5e+01]
Variable types: 0 continuous, 67 integer (67 binary)

Root relaxation: objective -4.949025e+02, 144 iterations, 1.42 seconds (0.68 work units)

    Nodes    |    Current Node    |     Objective Bounds      |     Work
 Expl Unexpl |  Obj  Depth IntInf | Incumbent    BestBd   Gap | It/Node Time

     0     0 -494.90250    0   67          - -494.90250      -     -    5s
     0     0 -494.90245    0   67          - -494.90245      -     -    9s
     0     2 -494.90245    0   67          - -494.90245      -     -   10s
     7    16 -493.82304    3   61          - -494.84462      -  11.0   15s
    51    84 -485.06380    6   40          - -494.30470      -   8.5   20s
   149   161 -484.25009    9   38          - -494.29362      -   6.6   26s
   204   219 -484.25008   11   36          - -494.29362      -   6.0   30s
   338   346 -484.25007   15   32          - -494.29362      -   4.8   35s
   475   480 -484.25006   21   26          - -494.29362      -   4.1   41s
   613   624 -484.25004   27   20          - -494.29362      -   3.6   46s
   748   782 -484.25003   33   14          - -494.29362      -   3.3   50s
*  878   919              47    -484.0000000 -494.29362  2.13%   3.1   53s
   945   959     cutoff   47      -484.00000 -494.29362  2.13%   3.1   55s
* 1013  1012              49    -491.0000000 -494.25042  0.66%   3.0   58s
* 1031  1012              47    -493.0000000 -494.25042  0.25%   3.0   58s
  1070  1018 -494.25009    9   38 -493.00000 -494.25042  0.25%   3.0   60s
* 1219  1077              49    -494.0000000 -494.25042  0.05%   2.8   62s
  1235  1144 -494.25008   14   33 -494.00000 -494.25042  0.05%   2.8   65s
  1317  1328 -494.25007   17   30 -494.00000 -494.25042  0.05%   2.7   75s
  1578  1452 -494.25004   27   20 -494.00000 -494.25042  0.05%   2.6   88s
  2094  1885 -494.25008   16   31 -494.00000 -494.25008  0.05%   2.6  108s
  3216  1615 -494.25005   25   67 -494.00000 -494.25008  0.05%   2.6  110s
  3218  1616 -494.25005   27   67 -494.00000 -494.25008  0.05%   2.6  116s
  3221  1620 -494.25008   14   62 -494.00000 -494.25008  0.05%   2.6  120s
  3230  1621 -494.25008   17   48 -494.00000 -494.25008  0.05%   2.6  126s
  3253  1611 -494.25008   21   37 -494.00000 -494.25008  0.05%   2.7  130s
  3268  1642 -494.25008   24   34 -494.00000 -494.25008  0.05%   2.7  135s
  3328  1716 -494.25008   26   32 -494.00000 -494.25008  0.05%   2.7  143s
  3386  1961 -494.25007   27   31 -494.00000 -494.25008  0.05%   2.6  148s
  3653  2422 -494.25007   30   28 -494.00000 -494.25008  0.05%   2.6  159s
  4404  3111 -494.25004   41   17 -494.00000 -494.25008  0.05%   2.5  172s
  5716  3627 -494.25007   28   30 -494.00000 -494.25008  0.05%   2.5  185s
  7072  4059     cutoff   56      -494.00000 -494.25008  0.05%   2.5  196s
  8326  4380 -494.25003   44   14 -494.00000 -494.25007  0.05%   2.5  206s
  9778  5089 -494.25007   29   29 -494.00000 -494.25007  0.05%   2.5  222s
 10756  5835 -494.25006   35   23 -494.00000 -494.25007  0.05%   2.4  231s
 11845  6593 -494.25000   57    1 -494.00000 -494.25007  0.05%   2.4  240s
 12981  7409 -494.25005   38   20 -494.00000 -494.25007  0.05%   2.4  249s
 14092  8142 -494.25007   31   27 -494.00000 -494.25007  0.05%   2.4  259s
 15125  8711 -494.25003   43   15 -494.00000 -494.25007  0.05%   2.4  268s
 16519  9248 -494.25006   33   25 -494.00000 -494.25007  0.05%   2.4  278s
 17263  9542 -494.25005   34   24 -494.00000 -494.25007  0.05%   2.4  289s
 18091 10230     cutoff   49      -494.00000 -494.25007  0.05%   2.5  298s
 19128 11014 -494.25007   31   27 -494.00000 -494.25007  0.05%   2.5  308s
 20276 11805 -494.25003   47   11 -494.00000 -494.25007  0.05%   2.5  318s
 21379 12532 -494.25005   38   20 -494.00000 -494.25007  0.05%   2.5  327s
 22398 13144 -494.25000   56    2 -494.00000 -494.25007  0.05%   2.5  336s
 23524 13792 -494.25006   32   26 -494.00000 -494.25007  0.05%   2.5  348s
 24345 14511 -494.25003   44   14 -494.00000 -494.25007  0.05%   2.5  359s
 25498 15326 -494.25003   46   12 -494.00000 -494.25007  0.05%   2.5  374s
 26684 16204 -494.25004   40   18 -494.00000 -494.25007  0.05%   2.5  384s
 27987 17003 -494.25005   39   19 -494.00000 -494.25007  0.05%   2.5  393s
 29160 17811 -494.25005   36   22 -494.00000 -494.25007  0.05%   2.5  403s
 30402 18427 -494.25006   32   26 -494.00000 -494.25007  0.05%   2.5  414s
 31088 19010 -494.25001   47   11 -494.00000 -494.25007  0.05%   2.5  424s
 32632 19538     cutoff   57      -494.00000 -494.25007  0.05%   2.5  435s
 34187 20427 -494.25007   31   27 -494.00000 -494.25007  0.05%   2.5  446s
 35489 21303     cutoff   56      -494.00000 -494.25007  0.05%   2.5  463s
 36669 22287 -494.25000   50    8 -494.00000 -494.25007  0.05%   2.5  475s
 38161 23125 -494.25006   32   26 -494.00000 -494.25007  0.05%   2.5  489s
 39398 23836 -494.25000   50    8 -494.00000 -494.25007  0.05%   2.5  503s
 40337 24584     cutoff   48      -494.00000 -494.25007  0.05%   2.5  517s
 41403 25377 -494.25000   49    9 -494.00000 -494.25007  0.05%   2.5  533s
 43026 26635 -494.25005   39   19 -494.00000 -494.25007  0.05%   2.5  552s
 44912 27882 -494.25005   37   21 -494.00000 -494.25007  0.05%   2.5  570s
 46655 28964     cutoff   58      -494.00000 -494.25007  0.05%   2.5  623s
 48774 30070 -494.25000   56    2 -494.00000 -494.25007  0.05%   2.5  639s
 50360 31307 -494.25004   41   17 -494.00000 -494.25007  0.05%   2.5  655s
 52219 32702 -494.25006   34   24 -494.00000 -494.25007  0.05%   2.5  672s
 54235 33641 -494.25003   43   15 -494.00000 -494.25007  0.05%   2.5  699s
 56267 34984 -494.25005   36   22 -494.00000 -494.25007  0.05%   2.5  715s
 58153 36335 -494.25006   34   24 -494.00000 -494.25007  0.05%   2.5  733s
 60057 37402 -494.25005   37   21 -494.00000 -494.25007  0.05%   2.5  753s
 61608 38224     cutoff   43      -494.00000 -494.25007  0.05%   2.5  774s
 63261 39094 -494.25003   43   15 -494.00000 -494.25007  0.05%   2.5  793s
 64491 40142 -494.25004   39   19 -494.00000 -494.25007  0.05%   2.5  815s
 66637 41093 -494.25000   55    3 -494.00000 -494.25006  0.05%   2.5  834s
 69140 42194 -494.25005   37   21 -494.00000 -494.25006  0.05%   2.5  854s
 71700 43354 -494.25000   57    1 -494.00000 -494.25006  0.05%   2.5  872s
 73733 44804 -494.25004   40   18 -494.00000 -494.25006  0.05%   2.5  890s
 75913 46022 -494.25006   33   25 -494.00000 -494.25006  0.05%   2.5  913s
 77783 47234 -494.25006   33   25 -494.00000 -494.25006  0.05%   2.5  932s
 79418 48621 -494.25004   41   17 -494.00000 -494.25006  0.05%   2.5  952s
 81661 50124 -494.25006   32   26 -494.00000 -494.25006  0.05%   2.5  971s
 83929 51531 -494.25003   43   15 -494.00000 -494.25006  0.05%   2.5  990s
 86092 52892     cutoff   56      -494.00000 -494.25006  0.05%   2.5 1008s
 88149 54170 -494.25001   52    6 -494.00000 -494.25006  0.05%   2.5 1028s
 90110 55055     cutoff   44      -494.00000 -494.25006  0.05%   2.5 1045s
 91757 56077 -494.25004   40   18 -494.00000 -494.25006  0.05%   2.5 1073s
 93042 57390 -494.25003   41   17 -494.00000 -494.25006  0.05%   2.5 1090s
 94900 58875 -494.25006   35   23 -494.00000 -494.25006  0.05%   2.5 1109s
 97133 59770 -494.25001   51    7 -494.00000 -494.25006  0.05%   2.5 1125s
 99538 60889 -494.25005   36   22 -494.00000 -494.25006  0.05%   2.5 1141s
 101086 62123 -494.25002   47   11 -494.00000 -494.25006  0.05%   2.5 1155s
 102852 63210 -494.25004   42   16 -494.00000 -494.25006  0.05%   2.5 1170s
 105264 64403 -494.25002   49    9 -494.00000 -494.25006  0.05%   2.5 1185s
 107024 65418 -494.25005   36   22 -494.00000 -494.25006  0.05%   2.5 1200s
 108376 66793 -494.25001   53    5 -494.00000 -494.25006  0.05%   2.5 1215s
 110406 68260     cutoff   57      -494.00000 -494.25006  0.05%   2.5 1230s
 112658 69376 -494.25005   36   22 -494.00000 -494.25006  0.05%   2.5 1246s
 114544 70713 -494.25004   40   18 -494.00000 -494.25006  0.05%   2.5 1265s
 116543 71741 -494.25003   44   14 -494.00000 -494.25006  0.05%   2.5 1281s
 119066 73023 -494.25000   57    1 -494.00000 -494.25006  0.05%   2.5 1299s
 121329 74174 -494.25005   34   24 -494.00000 -494.25006  0.05%   2.5 1322s
 123056 75546 -494.25005   34   24 -494.00000 -494.25006  0.05%   2.5 1336s
 125074 76919 -494.25005   39   19 -494.00000 -494.25006  0.05%   2.5 1350s
 127072 78311 -494.25001   52    6 -494.00000 -494.25006  0.05%   2.5 1364s
 129124 79383 -494.25005   39   19 -494.00000 -494.25006  0.05%   2.5 1379s
 131546 80180 -494.25000   55    3 -494.00000 -494.25006  0.05%   2.5 1393s
 133044 81451 -494.25005   38   20 -494.00000 -494.25006  0.05%   2.5 1409s
 135069 82883 -494.25003   46   12 -494.00000 -494.25006  0.05%   2.5 1426s
 137339 84230 -494.25005   38   20 -494.00000 -494.25006  0.05%   2.5 1442s
 139584 85519 -494.25000   53    5 -494.00000 -494.25006  0.05%   2.5 1458s
 141664 86512 -494.25006   34   24 -494.00000 -494.25006  0.05%   2.5 1487s
 143219 87964 -494.25003   44   14 -494.00000 -494.25006  0.05%   2.5 1503s
 145308 89194 -494.25000   57    1 -494.00000 -494.25006  0.05%   2.5 1517s
 147587 90308 -494.25005   36   22 -494.00000 -494.25006  0.05%   2.5 1532s
 149094 91585 -494.25004   41   17 -494.00000 -494.25006  0.05%   2.5 1546s
 150998 92714     cutoff   57      -494.00000 -494.25006  0.05%   2.5 1564s
 153002 93927 -494.25006   35   23 -494.00000 -494.25006  0.05%   2.5 1579s
 154707 94979 -494.25005   39   19 -494.00000 -494.25006  0.05%   2.5 1599s
 156407 96207     cutoff   51      -494.00000 -494.25006  0.05%   2.5 1618s
 158514 97556 -494.25004   40   18 -494.00000 -494.25006  0.05%   2.5 1637s
 160848 98723 -494.25006   34   24 -494.00000 -494.25006  0.05%   2.5 1654s
 162459 100164     cutoff   56      -494.00000 -494.25006  0.05%   2.5 1672s
 164749 101618 -494.25003   44   14 -494.00000 -494.25006  0.05%   2.5 1690s
 167018 103090     cutoff   57      -494.00000 -494.25006  0.05%   2.5 1709s
 169234 104417 -494.25004   43   15 -494.00000 -494.25006  0.05%   2.5 1726s
 171287 105237 -494.25004   42   16 -494.00000 -494.25006  0.05%   2.5 1744s
 172816 105920 -494.25003   44   14 -494.00000 -494.25006  0.05%   2.5 1763s
 174364 107365 -494.25004   39   19 -494.00000 -494.25006  0.05%   2.5 1781s
 176465 107502 -494.25001   50    8 -494.00000 -494.25006  0.05%   2.5 1800s

Explored 177511 nodes (443681 simplex iterations) in 1800.45 seconds (1782.53 work units)
Thread count was 20 (of 40 available processors)

Solution count 4: -494 -493 -491 -484 

Time limit reached
Best objective -4.940000000000e+02, best bound -4.942500615606e+02, gap 0.0506%

User-callback calls 546607, time in user-callback 0.68 sec
